p cnf 1087 1295
c ind 760 761 762 775 782 808 869 870 883 890 0
c ind 894 896 899 915 917 920 932 933 952 954 0
c ind 958 969 970 974 975 976 980 982 753 868 0
c ind 783 795 754 755 867 758 759 866 1072 1054 0
c ind 1063 1077 1040 1058 1068 1085 1041 1039 1071 1053 0
c ind 1062 1076 1057 1067 1084 1038 1070 1052 1061 1075 0
c ind 1056 1066 1083 1069 1051 1060 1074 1055 1065 1082 0
c ind 1036 1046 1050 1080 1037 1035 1030 1034 1033 1032 0
c ind 1031 1048 1078 1049 1079 1028 1029 1059 1073 1064 0
c ind 1081 1027 1022 1026 1025 1024 756 757 1023 1047 0
c ind 1020 1021 1013 1014 1019 1043 1018 1017 1016 1015 0
c ind 1011 1012 1010 1044 1009 1007 1008 1006 1001 1005 0
c ind 1004 1003 1002 999 1000 1045 998 993 997 996 0
c ind 995 994 1042 991 992 984 985 990 989 988 0
c ind 987 986 964 965 963 962 961 983 973 971 0
c ind 972 960 959 981 968 957 979 977 978 966 0
c ind 967 956 955 948 953 951 949 950 947 940 0
c ind 939 946 945 944 943 942 941 938 937 936 0
c ind 935 934 752 927 926 924 925 923 922 928 0
c ind 929 921 919 930 918 931 916 914 912 913 0
c ind 911 910 909 908 907 906 905 903 904 902 0
c ind 901 900 898 897 895 873 893 891 892 889 0
c ind 884 888 885 886 880 887 882 878 879 881 0
c ind 765 877 872 876 874 875 871 865 858 850 0
c ind 864 863 862 861 844 843 842 860 841 859 0
c ind 840 839 838 857 856 855 854 853 852 851 0
c ind 849 848 847 846 845 837 830 822 836 835 0
c ind 834 833 816 815 814 832 813 831 812 811 0
c ind 810 829 828 827 826 825 824 823 821 820 0
c ind 819 818 817 809 807 805 806 796 797 804 0
c ind 803 802 801 800 798 799 792 791 793 794 0
c ind 790 789 788 787 785 786 784 781 780 776 0
c ind 777 778 779 772 774 771 770 773 764 769 0
c ind 763 768 766 767 1 0
c ret 607 608 609 610 611 612 613 614 615 616 0
c ret 617 618 619 620 621 622 623 624 625 626 0
c ret 627 628 629 630 631 632 633 634 635 636 0
c ret 637 638 639 640 641 642 643 644 645 646 0
c ret 647 648 649 650 651 652 653 654 655 656 0
c ret 657 658 659 660 661 662 663 664 665 666 0
c ret 667 668 669 670 671 672 673 674 675 676 0
c ret 677 678 679 680 681 682 683 684 685 686 0
c ret 687 688 689 690 691 692 693 694 695 696 0
c ret 697 698 699 700 701 702 703 704 705 706 0
c ret 707 708 709 710 711 712 713 714 715 716 0
c ret 302 308 309 310 311 312 313 717 314 718 0
c ret 315 316 317 719 318 720 319 320 321 322 0
c ret 323 324 325 326 327 328 329 330 331 721 0
c ret 332 722 333 723 334 724 335 336 337 338 0
c ret 339 340 341 342 343 344 303 725 345 346 0
c ret 347 348 349 726 727 350 351 728 352 729 0
c ret 353 354 355 356 357 358 359 730 360 361 0
c ret 362 363 364 365 731 366 732 367 368 369 0
c ret 370 733 734 371 372 373 374 375 376 377 0
c ret 378 379 380 381 382 383 384 385 735 304 0
c ret 386 736 387 737 738 388 389 390 391 392 0
c ret 393 394 395 396 397 398 739 399 400 401 0
c ret 402 403 404 740 405 741 406 407 742 743 0
c ret 408 409 410 411 412 413 414 415 744 745 0
c ret 416 417 418 746 419 420 421 422 423 424 0
c ret 425 305 426 427 428 429 430 431 432 433 0
c ret 747 434 435 436 748 437 749 438 439 750 0
c ret 751 440 441 442 443 444 445 446 447 448 0
c ret 449 450 451 452 453 454 455 456 457 458 0
c ret 459 460 461 462 463 464 465 466 467 468 0
c ret 469 470 471 472 473 474 475 476 477 478 0
c ret 479 480 481 482 483 484 485 486 487 488 0
c ret 489 490 491 492 493 494 495 496 306 497 0
c ret 498 499 500 501 502 503 504 505 506 507 0
c ret 508 509 510 511 512 513 514 515 516 517 0
c ret 518 519 520 521 522 523 524 525 526 527 0
c ret 528 529 530 531 532 533 534 535 307 536 0
c ret 537 538 539 540 541 542 543 544 545 546 0
c ret 547 548 549 550 551 552 553 554 555 556 0
c ret 557 558 559 560 561 562 563 564 565 566 0
c ret 567 568 569 570 571 572 573 574 575 576 0
c ret 577 578 579 580 581 582 583 584 585 586 0
c ret 587 588 589 590 591 592 593 594 595 596 0
c ret 597 598 599 600 601 602 603 604 605 606 0
2 137 297 -298 0
2 3 297 -298 0
-2 298 0
-2 -297 0
-2 -3 -137 0
3 -4 -62 -127 0
3 4 62 117 0
3 4 62 -127 0
3 -4 -62 117 0
-3 4 -62 0
-3 -4 62 0
-3 -117 127 0
4 -5 -19 0
4 -5 56 0
-4 5 0
-4 19 -56 0
5 6 12 0
-5 -6 0
-5 -12 0
6 -8 -9 0
6 -7 -9 0
-6 9 0
-6 7 8 0
7 984 0
7 -985 -991 0
7 985 -992 0
-7 -984 985 992 0
-7 -984 -985 991 0
-7 8 0
8 -993 999 0
8 993 1000 0
7 -8 -993 -999 0
7 -8 993 -1000 0
9 -10 -11 0
-7 9 -11 0
-9 11 0
7 -9 10 0
-7 10 0
10 993 -1000 0
10 -993 -999 0
7 -10 -993 999 0
7 -10 993 1000 0
11 984 0
11 -985 991 0
11 985 992 0
-11 -984 985 -992 0
-11 -984 -985 -991 0
12 -13 -14 0
12 -14 -17 0
-12 14 0
-12 13 17 0
13 1013 0
13 -1014 -1020 0
13 1014 -1021 0
-13 -1013 1014 1021 0
-13 -1013 -1014 1020 0
14 -15 -16 0
-13 14 -16 0
-14 16 0
13 -14 15 0
15 1022 1029 0
15 -1022 1028 0
-15 -1022 -1028 0
-15 1022 -1029 0
16 1013 0
16 -1014 1020 0
16 1014 1021 0
-16 -1013 1014 -1021 0
-16 -1013 -1014 -1020 0
17 18 0
-17 -18 0
13 18 -1022 1028 0
13 18 1022 1029 0
-13 -18 0
-18 1022 -1029 0
-18 -1022 -1028 0
19 -20 -55 -1063 0
19 20 -21 -55 0
-19 55 0
-19 -20 1063 0
-19 20 21 0
20 979 -981 0
-20 -979 0
-20 981 0
21 -22 -1062 0
21 22 -23 0
-21 -22 1062 0
-21 22 23 0
22 951 -953 0
-22 -951 0
-22 953 0
23 24 47 54 0
23 24 47 -50 0
-23 -24 0
-23 -47 0
-23 50 -54 0
24 -45 752 -927 0
24 25 752 927 0
-24 -752 0
-24 45 -927 0
-24 -25 927 0
25 -26 -1059 0
-25 1059 0
-25 26 0
26 -27 41 0
-26 27 0
-26 -41 0
27 -34 35 0
27 28 35 -817 0
-27 -35 0
-27 -28 34 0
-27 34 817 0
28 29 0
28 32 -816 0
28 32 822 0
-28 -29 -32 0
-28 -29 816 -822 0
29 -30 31 -810 -817 0
-29 30 0
-29 -31 0
-29 810 0
-29 817 0
30 811 812 813 0
-30 -811 0
-30 -813 0
-30 -812 0
31 814 -815 0
-31 -814 0
-31 815 0
32 33 816 822 -823 0
-32 -816 0
-32 -33 0
-32 823 0
-32 -822 0
33 830 831 0
-33 -830 0
-33 -831 0
30 34 -810 0
31 34 -810 -816 0
-34 810 0
-30 -34 816 0
-30 -31 -34 0
35 37 40 0
35 37 -39 0
35 36 37 0
-35 -37 0
-35 -36 39 -40 0
36 839 840 841 0
-36 -839 0
-36 -841 0
-36 -840 0
36 37 -838 0
37 38 -838 -844 0
-37 838 0
-36 -37 844 0
-36 -37 -38 0
38 842 -843 0
-38 -842 0
-38 843 0
39 850 851 0
39 850 858 859 0
-39 -850 0
-39 -851 -858 0
-39 -851 -859 0
38 40 -838 844 -845 0
-40 845 0
-38 -40 0
-40 838 0
-40 -844 0
41 -42 -784 0
41 -44 -784 0
41 -43 -784 0
-41 784 0
-41 42 43 44 0
42 -785 786 787 0
-42 785 0
-42 -787 0
-42 -786 0
43 790 793 794 0
-43 -790 0
-43 -794 0
-43 -793 0
44 -790 791 792 0
-44 790 0
-44 -792 0
-44 -791 0
45 -46 1060 0
25 45 46 0
-45 -46 -1060 0
-25 -45 46 0
46 893 -895 0
-46 -893 0
-46 895 0
47 -48 -49 -937 0
47 -48 -49 -938 0
-47 49 0
-47 48 0
-47 937 938 0
48 940 941 942 943 0
-48 -943 0
-48 -942 0
-48 -940 0
-48 -941 0
49 -934 -935 -936 939 0
-49 936 0
-49 -939 0
-49 934 0
-49 935 0
45 50 -51 0
-45 -50 0
-50 51 0
51 52 53 0
-51 -52 0
-51 -53 0
52 914 -916 0
-52 -914 0
-52 916 0
53 906 907 908 0
-53 -906 0
-53 -908 0
-53 -907 0
52 54 -752 0
54 -752 1061 0
-54 752 0
-52 -54 -1061 0
55 -948 955 0
-55 948 0
-55 -955 0
56 -57 -948 0
21 23 56 0
21 56 -948 0
23 56 -57 0
-23 -56 948 0
-21 -56 57 0
57 59 955 0
57 -58 59 0
57 59 948 0
-57 -59 0
-57 58 -948 -955 0
58 -956 957 0
-58 956 0
-58 -957 0
59 60 -61 0
-59 -60 0
-59 61 0
60 959 -960 -961 962 0
-60 -959 0
-60 -962 0
-60 961 0
-60 960 0
61 -948 -955 -956 957 0
-61 956 0
-61 -957 0
-61 948 0
-61 955 0
62 -63 -72 0
62 -63 111 0
-62 63 0
-62 72 -111 0
63 64 -70 0
-63 -64 0
-63 70 0
64 -66 -67 0
64 -65 -67 0
-64 67 0
-64 65 66 0
65 534 0
65 -535 -541 0
65 535 -542 0
-65 -534 535 542 0
-65 -534 -535 541 0
-65 66 0
66 -543 549 0
66 543 550 0
65 -66 -543 -549 0
65 -66 543 -550 0
-65 67 -68 0
67 -68 -69 0
-67 68 0
65 -67 69 0
68 534 0
68 -535 541 0
68 535 542 0
-68 -534 535 -542 0
-68 -534 -535 -541 0
-65 69 0
69 543 -550 0
69 -543 -549 0
65 -69 -543 549 0
65 -69 543 550 0
70 -71 -563 -592 -679 0
-70 71 0
-70 563 0
-70 679 0
-70 592 0
71 -621 -650 0
-71 621 0
-71 650 0
72 -73 -110 -729 0
72 73 -74 -110 0
-72 110 0
-72 -73 729 0
-72 73 74 0
73 529 -531 0
-73 -529 0
-73 531 0
74 -75 -728 0
74 75 -76 0
-74 -75 728 0
-74 75 76 0
75 501 -503 0
-75 -501 0
-75 503 0
76 77 102 109 0
76 77 102 -105 0
-76 -77 0
-76 -102 0
-76 105 -109 0
77 -100 302 -477 0
77 78 302 477 0
-77 -302 0
-77 100 -477 0
-77 -78 477 0
78 -79 -725 0
-78 725 0
-78 79 0
79 80 -84 0
-79 -80 0
-79 84 0
80 -81 -334 0
80 -83 -334 0
80 -82 -334 0
-80 334 0
-80 81 82 83 0
81 -335 336 337 0
-81 335 0
-81 -337 0
-81 -336 0
82 340 343 344 0
-82 -340 0
-82 -344 0
-82 -343 0
83 -340 341 342 0
-83 340 0
-83 -342 0
-83 -341 0
84 85 -92 0
84 85 95 -367 0
-84 -85 0
-84 92 -95 0
-84 92 367 0
85 -86 89 0
85 89 388 0
-85 -89 0
-85 86 -388 0
86 -88 391 394 0
86 -87 -88 391 0
-86 -391 0
-86 88 0
-86 87 -394 0
87 392 -393 0
-87 -392 0
-87 393 0
88 389 390 0
-88 -389 0
-88 -390 0
87 -88 89 90 -91 0
88 -89 0
-89 -90 0
-87 -89 0
-89 91 0
90 400 401 0
90 400 408 409 0
-90 -400 0
-90 -401 -408 0
-90 -401 -409 0
91 -388 391 394 -395 0
-91 395 0
-91 -394 0
-91 388 0
-91 -391 0
92 93 -360 0
92 94 -360 -366 0
-92 360 0
-92 -93 366 0
-92 -93 -94 0
93 361 362 363 0
-93 -361 0
-93 -363 0
-93 -362 0
94 364 -365 0
-94 -364 0
-94 365 0
95 96 99 0
-95 -96 0
-95 -99 0
96 -97 -98 -380 0
96 -97 -98 -381 0
-96 98 0
-96 97 0
-96 380 381 0
-93 94 97 -360 -367 0
93 -97 0
-94 -97 0
-97 360 0
-97 367 0
98 366 372 -373 0
-98 373 0
-98 -372 0
-98 -366 0
-97 99 366 -372 0
97 -99 0
-99 372 0
-99 -366 0
100 -101 726 0
78 100 101 0
-100 -101 -726 0
-78 -100 101 0
101 443 -445 0
-101 -443 0
-101 445 0
102 -103 -104 -487 0
102 -103 -104 -488 0
-102 104 0
-102 103 0
-102 487 488 0
103 490 491 492 493 0
-103 -493 0
-103 -492 0
-103 -490 0
-103 -491 0
104 -484 -485 -486 489 0
-104 486 0
-104 -489 0
-104 484 0
-104 485 0
100 105 -106 0
-100 -105 0
-105 106 0
106 107 108 0
-106 -107 0
-106 -108 0
107 456 457 458 0
-107 -456 0
-107 -458 0
-107 -457 0
108 464 -466 0
-108 -464 0
-108 466 0
108 109 -302 0
109 -302 727 0
-109 302 0
-108 -109 -727 0
110 -498 505 0
-110 498 0
-110 -505 0
111 -112 -498 0
74 76 111 0
74 111 -498 0
76 111 -112 0
-76 -111 498 0
-74 -111 112 0
112 114 505 0
112 -113 114 0
112 114 498 0
-112 -114 0
-112 113 -498 -505 0
113 -506 507 0
-113 506 0
-113 -507 0
114 115 -116 0
-114 -115 0
-114 116 0
115 509 -510 -511 512 0
-115 -509 0
-115 -512 0
-115 511 0
-115 510 0
116 -498 -505 -506 507 0
-116 506 0
-116 -507 0
-116 498 0
-116 505 0
-5 117 -118 0
-5 117 126 0
5 -117 0
-117 118 -126 0
20 -55 118 -119 0
-20 -55 118 -1085 0
55 -118 0
20 -118 119 0
-20 -118 1085 0
-22 119 -1084 0
22 119 -120 0
-22 -119 1084 0
22 -119 120 0
47 120 121 125 0
47 120 121 -124 0
-47 -120 0
-120 -121 0
-120 124 -125 0
121 -123 752 -927 0
121 122 752 927 0
-121 -752 0
-121 123 -927 0
-121 -122 927 0
-26 122 -1081 0
-122 1081 0
26 -122 0
-46 123 1082 0
46 122 123 0
-46 -123 -1082 0
46 -122 -123 0
-51 123 124 0
51 -124 0
-123 -124 0
52 125 -752 0
125 -752 1083 0
-125 752 0
-52 -125 -1083 0
-57 120 126 0
119 126 -948 0
-57 126 -948 0
119 120 126 0
57 -119 -126 0
-120 -126 948 0
-63 127 -128 0
-63 127 136 0
63 -127 0
-127 128 -136 0
73 -110 128 -129 0
-73 -110 128 -751 0
110 -128 0
73 -128 129 0
-73 -128 751 0
-75 129 -750 0
75 129 -130 0
-75 -129 750 0
75 -129 130 0
102 130 131 135 0
102 130 131 -134 0
-102 -130 0
-130 -131 0
-130 134 -135 0
131 -133 302 -477 0
131 132 302 477 0
-131 -302 0
-131 133 -477 0
-131 -132 477 0
-79 132 -747 0
-132 747 0
79 -132 0
-101 133 748 0
101 132 133 0
-101 -133 -748 0
101 -132 -133 0
-106 133 134 0
106 -134 0
-133 -134 0
108 135 -302 0
135 -302 749 0
-135 302 0
-108 -135 -749 0
-112 130 136 0
129 136 -498 0
-112 136 -498 0
129 130 136 0
112 -129 -136 0
-130 -136 498 0
137 138 147 -156 -276 0
137 -138 -147 -156 -276 0
-137 276 0
-137 -138 147 0
-137 156 0
-137 138 -147 0
-5 138 -139 0
-5 138 146 0
5 -138 0
-138 139 -146 0
20 -55 139 -140 0
-20 -55 139 -1058 0
55 -139 0
20 -139 140 0
-20 -139 1058 0
-22 140 -1057 0
22 140 -141 0
-22 -140 1057 0
22 -140 141 0
47 141 142 145 0
47 141 142 -144 0
-47 -141 0
-141 -142 0
-141 144 -145 0
142 -143 752 -927 0
26 142 752 927 0
-142 -752 0
-142 143 -927 0
-26 -142 927 0
-46 143 1055 0
26 46 143 0
-46 -143 -1055 0
-26 46 -143 0
-51 143 144 0
51 -144 0
-143 -144 0
52 145 -752 0
145 -752 1056 0
-145 752 0
-52 -145 -1056 0
-57 141 146 0
140 146 -948 0
-57 146 -948 0
140 141 146 0
57 -140 -146 0
-141 -146 948 0
-63 147 -148 0
-63 147 155 0
63 -147 0
-147 148 -155 0
73 -110 148 -149 0
-73 -110 148 -724 0
110 -148 0
73 -148 149 0
-73 -148 724 0
-75 149 -723 0
75 149 -150 0
-75 -149 723 0
75 -149 150 0
102 150 151 154 0
102 150 151 -153 0
-102 -150 0
-150 -151 0
-150 153 -154 0
151 -152 302 -477 0
79 151 302 477 0
-151 -302 0
-151 152 -477 0
-79 -151 477 0
-101 152 721 0
79 101 152 0
-101 -152 -721 0
-79 101 -152 0
-106 152 153 0
106 -153 0
-152 -153 0
108 154 -302 0
154 -302 722 0
-154 302 0
-108 -154 -722 0
-112 150 155 0
149 155 -498 0
-112 155 -498 0
149 150 155 0
112 -149 -155 0
-150 -155 498 0
156 157 170 -183 -237 0
156 -157 -170 -183 -237 0
-156 237 0
-156 -157 170 0
-156 183 0
-156 157 -170 0
-5 157 -158 0
-5 157 -168 0
-5 157 -167 0
5 -157 0
-157 158 167 168 0
158 161 -162 0
-51 158 159 -162 0
-158 162 0
-158 -159 -161 0
51 -158 -161 0
-46 159 1065 0
46 159 160 0
-46 -159 -1065 0
46 -159 -160 0
-26 160 -1064 0
-160 1064 0
26 -160 0
52 161 -752 0
161 -752 1066 0
-161 752 0
-52 -161 -1066 0
162 163 -164 0
-162 -163 0
-162 164 0
-159 163 752 -927 0
160 163 752 927 0
-163 -752 0
159 -163 -927 0
-160 -163 927 0
47 164 165 0
-47 -164 0
-164 -165 0
-22 165 -948 0
165 -166 -948 0
-165 948 0
22 -165 166 0
-20 59 166 955 0
-58 59 166 -955 0
-59 -166 0
58 -166 -955 0
20 -166 955 0
-20 -55 167 -1068 0
-167 1068 0
20 -167 0
55 -167 0
-22 168 -169 -1067 0
-168 1067 0
22 -168 0
-168 169 0
166 169 -948 0
-169 948 0
-166 -169 0
-63 170 -171 0
-63 170 -181 0
-63 170 -180 0
63 -170 0
-170 171 180 181 0
171 174 -175 0
-106 171 172 -175 0
-171 175 0
-171 -172 -174 0
106 -171 -174 0
-101 172 731 0
101 172 173 0
-101 -172 -731 0
101 -172 -173 0
-79 173 -730 0
-173 730 0
79 -173 0
108 174 -302 0
174 -302 732 0
-174 302 0
-108 -174 -732 0
175 176 -177 0
-175 -176 0
-175 177 0
-172 176 302 -477 0
173 176 302 477 0
-176 -302 0
172 -176 -477 0
-173 -176 477 0
102 177 178 0
-102 -177 0
-177 -178 0
-75 178 -498 0
178 -179 -498 0
-178 498 0
75 -178 179 0
-73 114 179 505 0
-113 114 179 -505 0
-114 -179 0
113 -179 -505 0
73 -179 505 0
-73 -110 180 -734 0
-180 734 0
73 -180 0
110 -180 0
-75 181 -182 -733 0
-181 733 0
75 -181 0
-181 182 0
179 182 -498 0
-182 498 0
-179 -182 0
183 184 196 -207 -219 0
183 -184 -196 -207 -219 0
-183 219 0
-183 -184 196 0
-183 207 0
-183 184 -196 0
184 185 -191 -195 0
184 185 -191 302 0
-184 191 0
-184 -185 0
-184 195 -302 0
185 186 190 0
185 188 190 0
185 186 -188 302 0
-185 -186 -188 0
-185 188 -190 0
-185 -190 -302 0
-84 186 -708 0
80 -84 186 187 0
84 -186 0
-186 -187 708 0
-80 -186 708 0
187 313 745 0
-187 -313 0
-187 -745 0
188 -189 477 478 0
-188 189 0
-188 -478 0
-188 -477 0
189 479 480 481 0
-189 -479 0
-189 -481 0
-189 -480 0
190 421 -746 0
-186 190 -421 0
186 -190 -421 0
-190 421 746 0
67 191 -192 0
66 191 -192 -534 0
-191 192 0
-66 -67 -191 0
-67 -191 534 0
192 -193 -194 0
-192 193 0
-192 194 0
102 116 193 0
102 115 193 0
-102 -193 0
-115 -116 -193 0
-71 194 -563 -592 -679 0
71 -194 0
-194 563 0
-194 679 0
-194 592 0
107 -190 195 0
-107 -195 0
190 -195 0
196 197 -204 752 0
196 197 -203 -204 0
-196 204 0
-196 -197 0
-196 203 -752 0
197 198 202 0
197 200 202 0
197 198 -200 752 0
-197 -198 -200 0
-197 200 -202 0
-197 -202 -752 0
-27 198 -1042 0
-27 41 198 199 0
27 -198 0
-198 -199 1042 0
-41 -198 1042 0
199 763 1079 0
-199 -763 0
-199 -1079 0
200 -201 927 928 0
-200 201 0
-200 -928 0
-200 -927 0
201 929 930 931 0
-201 -929 0
-201 -931 0
-201 -930 0
202 871 -1080 0
-198 202 -871 0
198 -202 -871 0
-202 871 1080 0
53 -202 203 0
-53 -203 0
202 -203 0
12 204 -205 -206 0
9 12 204 -205 0
-204 205 0
-12 -204 0
-9 -204 206 0
47 61 205 0
47 60 205 0
-47 -205 0
-60 -61 -205 0
8 206 -984 0
-206 984 0
-8 -206 0
207 208 211 213 -214 0
207 -208 -211 213 -214 0
-207 -213 0
-207 208 -211 0
-207 214 0
-207 -208 211 0
-84 -191 208 209 -210 0
-208 210 0
84 -208 0
191 -208 0
-208 -209 0
-107 209 -302 0
-209 302 0
107 -209 0
210 -708 710 0
-210 708 0
-210 -710 0
-204 211 -212 752 0
53 -204 211 -212 0
-211 212 0
204 -211 0
-53 -211 -752 0
-27 212 -1042 1044 0
-212 1042 0
-212 -1044 0
27 -212 0
-14 -17 213 0
14 -213 0
17 -213 0
10 214 -215 0
8 214 -215 0
11 214 -215 0
-214 215 0
-8 -10 -11 -214 0
28 35 215 -216 0
-34 35 215 -216 0
-215 216 0
-35 -215 0
-28 34 -215 0
41 -205 216 217 -218 0
205 -216 0
-216 -217 0
-41 -216 0
-216 218 0
-53 217 -752 0
-217 752 0
53 -217 0
218 -755 -756 0
218 -754 757 0
218 -754 -756 0
218 -755 757 0
-218 756 -757 0
-218 754 755 0
219 -220 -228 0
219 220 228 0
-219 220 -228 0
-219 -220 228 0
220 -224 752 0
53 220 221 -224 0
-220 224 0
-220 -221 -752 0
-53 -220 -752 0
221 222 -871 0
-212 221 871 1050 0
-221 871 -1050 0
-221 -222 -871 0
212 -221 871 0
-27 222 -223 0
27 -222 0
-222 223 0
223 -1042 -1044 0
41 223 1042 0
223 -1042 -1048 0
-41 -223 1042 0
-223 -1042 1044 1048 0
-204 224 -225 226 0
-204 221 224 226 0
204 -224 0
-224 -226 0
-221 -224 225 0
225 927 928 0
-225 -927 0
-225 -928 0
222 226 -227 0
201 -221 226 0
201 226 -227 0
-221 222 226 0
221 -226 227 0
-201 -222 -226 0
-200 227 752 0
-227 -752 0
200 -227 0
228 -233 302 0
107 228 229 -233 0
-228 233 0
-228 -229 -302 0
-107 -228 -302 0
229 230 -421 0
-84 229 -232 421 0
-229 -230 -421 0
84 -229 421 0
-229 232 421 0
-84 230 -231 0
84 -230 0
-230 231 0
231 -708 -710 0
80 231 708 0
231 -708 -714 0
-80 -231 708 0
-231 -708 710 714 0
232 -708 710 716 0
-232 708 0
-232 -716 0
-232 -710 0
-191 233 -234 235 0
-191 229 233 235 0
191 -233 0
-233 -235 0
-229 -233 234 0
234 477 478 0
-234 -477 0
-234 -478 0
230 235 -236 0
189 -229 235 0
189 235 -236 0
-229 230 235 0
229 -235 236 0
-189 -230 -235 0
-188 236 302 0
-236 -302 0
188 -236 0
237 238 247 -256 -266 0
237 -238 -247 -256 -266 0
237 238 247 256 266 0
237 -238 -247 256 266 0
-237 238 -247 0
-237 -238 247 0
-237 256 -266 0
-237 -256 266 0
-63 238 -239 0
-63 238 -246 0
-63 238 -245 0
63 -238 0
-238 239 245 246 0
239 242 -243 0
-106 239 240 -243 0
-239 243 0
-239 -240 -242 0
106 -239 -242 0
-101 240 740 0
101 240 241 0
-101 -240 -740 0
101 -240 -241 0
-79 241 -739 0
-241 739 0
79 -241 0
108 242 -302 0
242 -302 741 0
-242 302 0
-108 -242 -741 0
-177 243 244 0
177 -243 0
-243 -244 0
-240 244 302 -477 0
241 244 302 477 0
-244 -302 0
240 -244 -477 0
-241 -244 477 0
-73 -110 245 -743 0
-245 743 0
73 -245 0
110 -245 0
-75 -182 246 -742 0
-246 742 0
75 -246 0
182 -246 0
6 247 -248 -1013 0
6 247 254 -1013 0
-247 1013 0
-6 -247 0
-247 248 -254 0
248 251 -252 0
-51 248 249 -252 0
-248 252 0
-248 -249 -251 0
51 -248 -251 0
-46 249 1074 0
46 249 250 0
-46 -249 -1074 0
46 -249 -250 0
-26 250 -1073 0
-250 1073 0
26 -250 0
52 251 -752 0
251 -752 1075 0
-251 752 0
-52 -251 -1075 0
-164 252 253 0
164 -252 0
-252 -253 0
-249 253 752 -927 0
250 253 752 927 0
-253 -752 0
249 -253 -927 0
-250 -253 927 0
20 254 255 0
55 254 255 0
254 255 1077 0
-254 -255 0
-20 -55 -254 -1077 0
-22 -169 255 -1076 0
-255 1076 0
22 -255 0
169 -255 0
64 -194 256 257 265 0
194 -256 0
-256 -265 0
-64 -256 0
-256 -257 0
257 259 498 0
75 257 258 259 0
-257 -259 0
-257 -258 -498 0
-75 -257 -498 0
-73 258 505 -738 0
73 -258 0
-258 738 0
-258 -505 0
102 259 260 264 0
102 259 260 -263 0
-102 -259 0
-259 -260 0
-259 263 -264 0
260 -262 302 -477 0
260 261 302 477 0
-260 -302 0
-260 262 -477 0
-260 -261 477 0
-79 261 -306 0
-261 306 0
79 -261 0
-101 262 735 0
101 261 262 0
-101 -262 -735 0
101 -261 -262 0
-106 262 263 0
106 -263 0
-262 -263 0
108 264 -302 0
264 -302 736 0
-264 302 0
-108 -264 -736 0
-178 -179 258 265 0
-178 258 265 737 0
178 -265 0
-258 -265 0
179 -265 -737 0
-5 165 266 267 0
-5 266 267 275 0
5 -266 0
-266 -267 0
-165 -266 -275 0
267 269 948 0
22 267 268 269 0
-267 -269 0
-267 -268 -948 0
-22 -267 -948 0
-20 268 955 -1072 0
20 -268 0
-268 1072 0
-268 -955 0
47 269 270 274 0
47 269 270 -273 0
-47 -269 0
-269 -270 0
-269 273 -274 0
270 -272 752 -927 0
270 271 752 927 0
-270 -752 0
-270 272 -927 0
-270 -271 927 0
-26 271 -756 0
-271 756 0
26 -271 0
-46 272 1069 0
46 271 272 0
-46 -272 -1069 0
46 -271 -272 0
-51 272 273 0
51 -273 0
-272 -273 0
52 274 -752 0
274 -752 1070 0
-274 752 0
-52 -274 -1070 0
-166 268 275 0
268 275 1071 0
-268 -275 0
166 -275 -1071 0
127 276 277 287 0
-117 276 -277 -287 0
-117 276 277 287 0
127 276 -277 -287 0
-276 277 -287 0
-276 -277 287 0
117 -127 -276 0
-5 277 -278 0
-5 277 286 0
5 -277 0
-277 278 -286 0
20 -55 278 -279 0
-20 -55 278 -1054 0
55 -278 0
20 -278 279 0
-20 -278 1054 0
-22 279 -1053 0
22 279 -280 0
-22 -279 1053 0
22 -279 280 0
47 280 281 285 0
47 280 281 -284 0
-47 -280 0
-280 -281 0
-280 284 -285 0
281 282 -752 1052 0
52 281 282 -752 0
-281 752 0
-281 -282 0
-52 -281 -1052 0
-51 282 283 0
51 -282 0
-282 -283 0
26 46 283 0
-46 283 1051 0
46 283 757 0
-46 -283 -1051 0
-26 46 -283 -757 0
-26 46 284 -757 0
-26 284 -757 927 0
26 -284 0
-284 757 0
-46 -284 -927 0
285 752 1051 0
285 752 927 0
46 285 752 0
-285 -752 0
-46 -285 -927 -1051 0
-57 280 286 0
279 286 -948 0
-57 286 -948 0
279 280 286 0
57 -279 -286 0
-280 -286 948 0
-63 287 -288 0
-63 287 296 0
63 -287 0
-287 288 -296 0
73 -110 288 -289 0
-73 -110 288 -720 0
110 -288 0
73 -288 289 0
-73 -288 720 0
-75 289 -719 0
75 289 -290 0
-75 -289 719 0
75 -289 290 0
102 290 291 295 0
102 290 291 -294 0
-102 -290 0
-290 -291 0
-290 294 -295 0
291 292 -302 718 0
108 291 292 -302 0
-291 302 0
-291 -292 0
-108 -291 -718 0
-106 292 293 0
106 -292 0
-292 -293 0
79 101 293 0
-101 293 717 0
101 293 307 0
-101 -293 -717 0
-79 101 -293 -307 0
-79 101 294 -307 0
-79 294 -307 477 0
79 -294 0
-294 307 0
-101 -294 -477 0
295 302 717 0
295 302 477 0
101 295 302 0
-295 -302 0
-101 -295 -477 -717 0
-112 290 296 0
289 296 -498 0
-112 296 -498 0
289 290 296 0
112 -289 -296 0
-290 -296 498 0
-66 -68 -69 297 0
66 -297 0
68 -297 0
69 -297 0
80 85 298 299 -300 0
-298 300 0
-298 -299 0
-80 -298 0
-85 -298 0
92 96 99 299 0
-92 -299 0
-99 -299 0
-96 -299 0
-70 -193 209 300 -301 0
-300 301 0
70 -300 0
193 -300 0
-209 -300 0
301 -305 -306 0
301 -304 307 0
301 -304 -306 0
301 -305 307 0
-301 306 -307 0
-301 304 305 0
1 2 0
-1 -2 0
1086 0

